
Gurobi 6.5.2 (win64) logging started 07/24/16 17:31:36


Gurobi 6.5.2 (win64) logging started 07/24/16 17:31:36

Optimize a model with 2564 rows, 746 columns and 6767 nonzeros
Coefficient statistics:
  Matrix range    [6e-08, 1e+03]
  Objective range [1e+00, 1e+00]
  Bounds range    [1e+00, 1e+00]
  RHS range       [6e-06, 3e+03]
Presolve removed 2319 rows and 493 columns
Presolve time: 0.02s
Presolved: 245 rows, 253 columns, 1054 nonzeros
Variable types: 253 continuous, 0 integer (0 binary)

Root relaxation: objective 2.132306e+01, 267 iterations, 0.00 seconds

    Nodes    |    Current Node    |     Objective Bounds      |     Work
 Expl Unexpl |  Obj  Depth IntInf | Incumbent    BestBd   Gap | It/Node Time

*    0     0               0      21.3230632   21.32306  0.00%     -    0s

Explored 0 nodes (267 simplex iterations) in 0.02 seconds
Thread count was 8 (of 8 available processors)

Optimal solution found (tolerance 1.00e-04)
Best objective 2.132306323170e+01, best bound 2.132306323170e+01, gap 0.0%

Wrote requested result file 'H1\instance15\\Results15EC_Sol4.lp'

